c K to QBF translator. (C)Rice University.
c From input file 6-19.lwb
p cnf 809 2096
e 809 1 808 0
a 186 0
e 225 807 6 5 4 3 2 228 806 0
a 187 188 0
e 231 805 15 14 13 12 11 10 9 8 7 237 240 243 245 246 804 0
a 189 190 0
e 250 803 25 24 23 22 21 20 19 18 17 16 256 259 262 265 268 270 272 273 802 0
a 191 192 0
e 277 801 35 34 33 32 31 30 29 28 27 26 280 286 289 292 295 298 300 302 303 800 0
a 193 194 0
e 307 799 45 44 43 42 41 40 39 38 37 36 310 316 319 322 325 328 330 332 333 798 0
a 195 196 0
e 337 797 55 54 53 52 51 50 49 48 47 46 340 346 349 352 355 358 360 362 363 796 0
a 197 198 0
e 367 795 65 64 63 62 61 60 59 58 57 56 370 376 379 382 385 388 390 392 393 794 0
a 199 200 0
e 397 793 75 74 73 72 71 70 69 68 67 66 400 406 409 412 415 418 420 422 423 792 0
a 201 202 0
e 427 791 85 84 83 82 81 80 79 78 77 76 430 436 439 442 445 448 450 452 453 790 0
a 203 204 0
e 457 789 99 98 97 96 95 94 93 92 91 90 89 88 87 86 460 468 471 474 477 480 483 485 486 788 0
a 205 206 207 0
e 491 787 111 110 109 108 107 106 105 104 103 102 101 100 494 500 503 506 509 512 515 518 521 524 526 528 529 786 0
a 208 209 0
e 533 785 121 120 119 118 117 116 115 114 113 112 536 542 546 549 552 555 558 561 564 566 567 784 0
a 210 211 0
e 571 783 130 129 128 127 126 125 124 123 122 574 580 583 586 589 592 595 597 598 782 0
a 212 213 0
e 601 781 139 138 137 136 135 134 133 132 131 604 610 613 616 619 622 624 625 780 0
a 214 215 0
e 628 779 148 147 146 145 144 143 142 141 140 631 637 640 643 646 649 651 652 778 0
a 216 217 0
e 655 777 157 156 155 154 153 152 151 150 149 658 664 667 670 673 676 678 679 776 0
a 218 219 0
e 682 775 166 165 164 163 162 161 160 159 158 685 691 694 697 700 703 705 706 774 0
a 220 221 0
e 709 773 175 174 173 172 171 170 169 168 167 712 718 721 724 727 730 732 733 772 0
a 222 223 0
e 736 771 181 180 179 178 177 176 739 742 745 748 751 754 756 757 770 0
a 224 0
e 758 769 184 183 182 759 761 763 765 766 768 185 767 764 762 760 755 752 753 750 749 747 746 744 743 741 740 738 737 734 735 731 728 729 726 725 723 722 720 719 714 717 715 716 713 711 710 707 708 704 701 702 699 698 696 695 693 692 687 690 688 689 686 684 683 680 681 677 674 675 672 671 669 668 666 665 660 663 661 662 659 657 656 653 654 650 647 648 645 644 642 641 639 638 633 636 634 635 632 630 629 626 627 623 620 621 618 617 615 614 612 611 606 609 607 608 605 603 602 599 600 596 593 594 590 591 588 587 585 584 582 581 576 579 577 578 575 573 572 568 569 570 565 562 563 559 560 557 556 554 553 551 550 548 547 544 545 543 538 541 539 540 537 535 534 530 531 532 527 525 522 523 519 520 517 516 514 513 511 510 508 507 505 504 502 501 496 499 497 498 495 493 492 487 488 489 490 484 481 482 478 479 476 475 473 472 470 469 462 467 463 464 465 466 461 459 458 454 455 456 451 449 446 447 444 443 441 440 438 437 432 435 433 434 431 429 428 424 425 426 421 419 416 417 414 413 411 410 408 407 402 405 403 404 401 399 398 394 395 396 391 389 386 387 384 383 381 380 378 377 372 375 373 374 371 369 368 364 365 366 361 359 356 357 354 353 351 350 348 347 342 345 343 344 341 339 338 334 335 336 331 329 326 327 324 323 321 320 318 317 312 315 313 314 311 309 308 304 305 306 301 299 296 297 294 293 291 290 288 287 282 285 283 284 281 279 278 274 275 276 271 269 266 267 264 263 261 260 258 257 252 255 253 254 251 247 248 249 244 241 242 239 238 233 236 234 235 232 229 230 227 226 0
809  0 
809 -808 -1  0 
808 -809  0 
1 -809  0 
-808 225 807  0 
-225 808  0 
-807 808  0 
-225 -186 -1  0 
186 225  0 
1 225  0 
807 -228 -806  0 
228 -807  0 
806 -807  0 
-228 -186 227  0 
186 228  0 
-227 228  0 
227 -5 -2 -226  0 
5 -227  0 
2 -227  0 
226 -227  0 
-226 3 4 6  0 
-3 226  0 
-4 226  0 
-6 226  0 
-806 231 805  0 
-231 806  0 
-805 806  0 
231 -229 -230  0 
229 -231  0 
230 -231  0 
-229 -3 187 -188  0 
3 229  0 
-187 229  0 
188 229  0 
-230 -2 -187 -188  0 
2 230  0 
187 230  0 
188 230  0 
805 -237 -240 -243 -245 -246 -804  0 
237 -805  0 
240 -805  0 
243 -805  0 
245 -805  0 
246 -805  0 
804 -805  0 
-237 233 236  0 
-233 237  0 
-236 237  0 
-233 -5 232  0 
5 233  0 
-232 233  0 
232 3 2  0 
-3 -232  0 
-2 -232  0 
236 -13 -234 -235  0 
13 -236  0 
234 -236  0 
235 -236  0 
-234 8 11  0 
-8 234  0 
-11 234  0 
-235 9 10 15  0 
-9 235  0 
-10 235  0 
-15 235  0 
-240 239 8  0 
-239 240  0 
-8 240  0 
-239 -4 238  0 
4 239  0 
-238 239  0 
238 3 2  0 
-3 -238  0 
-2 -238  0 
-243 241 242  0 
-241 243  0 
-242 243  0 
-241 187 -188  0 
-187 241  0 
188 241  0 
242 -12 -14  0 
12 -242  0 
14 -242  0 
-245 244 7  0 
-244 245  0 
-7 245  0 
-244 -187 -188  0 
187 244  0 
188 244  0 
-246 -14 -15  0 
14 246  0 
15 246  0 
-804 250 803  0 
-250 804  0 
-803 804  0 
250 -247 -248 -249  0 
247 -250  0 
248 -250  0 
249 -250  0 
-247 -9 -189 190  0 
9 247  0 
189 247  0 
-190 247  0 
-248 -8 189 -190  0 
8 248  0 
-189 248  0 
190 248  0 
-249 -7 -189 -190  0 
7 249  0 
189 249  0 
190 249  0 
803 -256 -259 -262 -265 -268 -270 -272 -273 -802  0 
256 -803  0 
259 -803  0 
262 -803  0 
265 -803  0 
268 -803  0 
270 -803  0 
272 -803  0 
273 -803  0 
802 -803  0 
-256 252 255  0 
-252 256  0 
-255 256  0 
-252 -13 251  0 
13 252  0 
-251 252  0 
251 9 8 7  0 
-9 -251  0 
-8 -251  0 
-7 -251  0 
255 -22 -253 -254  0 
22 -255  0 
253 -255  0 
254 -255  0 
-253 17 20  0 
-17 253  0 
-20 253  0 
-254 18 19 25  0 
-18 254  0 
-19 254  0 
-25 254  0 
-259 258 24 23  0 
-258 259  0 
-24 259  0 
-23 259  0 
-258 -12 257  0 
12 258  0 
-257 258  0 
257 9 8 7  0 
-9 -257  0 
-8 -257  0 
-7 -257  0 
-262 261 23  0 
-261 262  0 
-23 262  0 
-261 -11 260  0 
11 261  0 
-260 261  0 
260 9 8 7  0 
-9 -260  0 
-8 -260  0 
-7 -260  0 
-265 264 17  0 
-264 265  0 
-17 265  0 
-264 -10 263  0 
10 264  0 
-263 264  0 
263 9 8 7  0 
-9 -263  0 
-8 -263  0 
-7 -263  0 
-268 266 267  0 
-266 268  0 
-267 268  0 
-266 -189 190  0 
189 266  0 
-190 266  0 
267 -21 -24  0 
21 -267  0 
24 -267  0 
-270 269 24  0 
-269 270  0 
-24 270  0 
-269 189 -190  0 
-189 269  0 
190 269  0 
-272 271 16  0 
-271 272  0 
-16 272  0 
-271 -189 -190  0 
189 271  0 
190 271  0 
-273 -24 -25  0 
24 273  0 
25 273  0 
-802 277 801  0 
-277 802  0 
-801 802  0 
277 -274 -275 -276  0 
274 -277  0 
275 -277  0 
276 -277  0 
-274 -18 -191 192  0 
18 274  0 
191 274  0 
-192 274  0 
-275 -17 191 -192  0 
17 275  0 
-191 275  0 
192 275  0 
-276 -16 -191 -192  0 
16 276  0 
191 276  0 
192 276  0 
801 -280 -286 -289 -292 -295 -298 -300 -302 -303 -800  0 
280 -801  0 
286 -801  0 
289 -801  0 
292 -801  0 
295 -801  0 
298 -801  0 
300 -801  0 
302 -801  0 
303 -801  0 
800 -801  0 
-280 279 35  0 
-279 280  0 
-35 280  0 
-279 -23 278  0 
23 279  0 
-278 279  0 
278 18 17 16  0 
-18 -278  0 
-17 -278  0 
-16 -278  0 
-286 282 285  0 
-282 286  0 
-285 286  0 
-282 -22 281  0 
22 282  0 
-281 282  0 
281 18 17 16  0 
-18 -281  0 
-17 -281  0 
-16 -281  0 
285 -32 -283 -284  0 
32 -285  0 
283 -285  0 
284 -285  0 
-283 27 30  0 
-27 283  0 
-30 283  0 
-284 28 29 35  0 
-28 284  0 
-29 284  0 
-35 284  0 
-289 288 34 33  0 
-288 289  0 
-34 289  0 
-33 289  0 
-288 -21 287  0 
21 288  0 
-287 288  0 
287 18 17 16  0 
-18 -287  0 
-17 -287  0 
-16 -287  0 
-292 291 33  0 
-291 292  0 
-33 292  0 
-291 -20 290  0 
20 291  0 
-290 291  0 
290 18 17 16  0 
-18 -290  0 
-17 -290  0 
-16 -290  0 
-295 294 27  0 
-294 295  0 
-27 295  0 
-294 -19 293  0 
19 294  0 
-293 294  0 
293 18 17 16  0 
-18 -293  0 
-17 -293  0 
-16 -293  0 
-298 296 297  0 
-296 298  0 
-297 298  0 
-296 -191 192  0 
191 296  0 
-192 296  0 
297 -31 -34  0 
31 -297  0 
34 -297  0 
-300 299 34  0 
-299 300  0 
-34 300  0 
-299 191 -192  0 
-191 299  0 
192 299  0 
-302 301 26  0 
-301 302  0 
-26 302  0 
-301 -191 -192  0 
191 301  0 
192 301  0 
-303 -34 -35  0 
34 303  0 
35 303  0 
-800 307 799  0 
-307 800  0 
-799 800  0 
307 -304 -305 -306  0 
304 -307  0 
305 -307  0 
306 -307  0 
-304 -28 -193 194  0 
28 304  0 
193 304  0 
-194 304  0 
-305 -27 193 -194  0 
27 305  0 
-193 305  0 
194 305  0 
-306 -26 -193 -194  0 
26 306  0 
193 306  0 
194 306  0 
799 -310 -316 -319 -322 -325 -328 -330 -332 -333 -798  0 
310 -799  0 
316 -799  0 
319 -799  0 
322 -799  0 
325 -799  0 
328 -799  0 
330 -799  0 
332 -799  0 
333 -799  0 
798 -799  0 
-310 309 45  0 
-309 310  0 
-45 310  0 
-309 -33 308  0 
33 309  0 
-308 309  0 
308 28 27 26  0 
-28 -308  0 
-27 -308  0 
-26 -308  0 
-316 312 315  0 
-312 316  0 
-315 316  0 
-312 -32 311  0 
32 312  0 
-311 312  0 
311 28 27 26  0 
-28 -311  0 
-27 -311  0 
-26 -311  0 
315 -42 -313 -314  0 
42 -315  0 
313 -315  0 
314 -315  0 
-313 37 40  0 
-37 313  0 
-40 313  0 
-314 38 39 45  0 
-38 314  0 
-39 314  0 
-45 314  0 
-319 318 44 43  0 
-318 319  0 
-44 319  0 
-43 319  0 
-318 -31 317  0 
31 318  0 
-317 318  0 
317 28 27 26  0 
-28 -317  0 
-27 -317  0 
-26 -317  0 
-322 321 43  0 
-321 322  0 
-43 322  0 
-321 -30 320  0 
30 321  0 
-320 321  0 
320 28 27 26  0 
-28 -320  0 
-27 -320  0 
-26 -320  0 
-325 324 37  0 
-324 325  0 
-37 325  0 
-324 -29 323  0 
29 324  0 
-323 324  0 
323 28 27 26  0 
-28 -323  0 
-27 -323  0 
-26 -323  0 
-328 326 327  0 
-326 328  0 
-327 328  0 
-326 -193 194  0 
193 326  0 
-194 326  0 
327 -41 -44  0 
41 -327  0 
44 -327  0 
-330 329 44  0 
-329 330  0 
-44 330  0 
-329 193 -194  0 
-193 329  0 
194 329  0 
-332 331 36  0 
-331 332  0 
-36 332  0 
-331 -193 -194  0 
193 331  0 
194 331  0 
-333 -44 -45  0 
44 333  0 
45 333  0 
-798 337 797  0 
-337 798  0 
-797 798  0 
337 -334 -335 -336  0 
334 -337  0 
335 -337  0 
336 -337  0 
-334 -38 -195 196  0 
38 334  0 
195 334  0 
-196 334  0 
-335 -37 195 -196  0 
37 335  0 
-195 335  0 
196 335  0 
-336 -36 -195 -196  0 
36 336  0 
195 336  0 
196 336  0 
797 -340 -346 -349 -352 -355 -358 -360 -362 -363 -796  0 
340 -797  0 
346 -797  0 
349 -797  0 
352 -797  0 
355 -797  0 
358 -797  0 
360 -797  0 
362 -797  0 
363 -797  0 
796 -797  0 
-340 339 55  0 
-339 340  0 
-55 340  0 
-339 -43 338  0 
43 339  0 
-338 339  0 
338 38 37 36  0 
-38 -338  0 
-37 -338  0 
-36 -338  0 
-346 342 345  0 
-342 346  0 
-345 346  0 
-342 -42 341  0 
42 342  0 
-341 342  0 
341 38 37 36  0 
-38 -341  0 
-37 -341  0 
-36 -341  0 
345 -52 -343 -344  0 
52 -345  0 
343 -345  0 
344 -345  0 
-343 47 50  0 
-47 343  0 
-50 343  0 
-344 48 49 55  0 
-48 344  0 
-49 344  0 
-55 344  0 
-349 348 54 53  0 
-348 349  0 
-54 349  0 
-53 349  0 
-348 -41 347  0 
41 348  0 
-347 348  0 
347 38 37 36  0 
-38 -347  0 
-37 -347  0 
-36 -347  0 
-352 351 53  0 
-351 352  0 
-53 352  0 
-351 -40 350  0 
40 351  0 
-350 351  0 
350 38 37 36  0 
-38 -350  0 
-37 -350  0 
-36 -350  0 
-355 354 47  0 
-354 355  0 
-47 355  0 
-354 -39 353  0 
39 354  0 
-353 354  0 
353 38 37 36  0 
-38 -353  0 
-37 -353  0 
-36 -353  0 
-358 356 357  0 
-356 358  0 
-357 358  0 
-356 -195 196  0 
195 356  0 
-196 356  0 
357 -51 -54  0 
51 -357  0 
54 -357  0 
-360 359 54  0 
-359 360  0 
-54 360  0 
-359 195 -196  0 
-195 359  0 
196 359  0 
-362 361 46  0 
-361 362  0 
-46 362  0 
-361 -195 -196  0 
195 361  0 
196 361  0 
-363 -54 -55  0 
54 363  0 
55 363  0 
-796 367 795  0 
-367 796  0 
-795 796  0 
367 -364 -365 -366  0 
364 -367  0 
365 -367  0 
366 -367  0 
-364 -48 -197 198  0 
48 364  0 
197 364  0 
-198 364  0 
-365 -47 197 -198  0 
47 365  0 
-197 365  0 
198 365  0 
-366 -46 -197 -198  0 
46 366  0 
197 366  0 
198 366  0 
795 -370 -376 -379 -382 -385 -388 -390 -392 -393 -794  0 
370 -795  0 
376 -795  0 
379 -795  0 
382 -795  0 
385 -795  0 
388 -795  0 
390 -795  0 
392 -795  0 
393 -795  0 
794 -795  0 
-370 369 65  0 
-369 370  0 
-65 370  0 
-369 -53 368  0 
53 369  0 
-368 369  0 
368 48 47 46  0 
-48 -368  0 
-47 -368  0 
-46 -368  0 
-376 372 375  0 
-372 376  0 
-375 376  0 
-372 -52 371  0 
52 372  0 
-371 372  0 
371 48 47 46  0 
-48 -371  0 
-47 -371  0 
-46 -371  0 
375 -62 -373 -374  0 
62 -375  0 
373 -375  0 
374 -375  0 
-373 57 60  0 
-57 373  0 
-60 373  0 
-374 58 59 65  0 
-58 374  0 
-59 374  0 
-65 374  0 
-379 378 64 63  0 
-378 379  0 
-64 379  0 
-63 379  0 
-378 -51 377  0 
51 378  0 
-377 378  0 
377 48 47 46  0 
-48 -377  0 
-47 -377  0 
-46 -377  0 
-382 381 63  0 
-381 382  0 
-63 382  0 
-381 -50 380  0 
50 381  0 
-380 381  0 
380 48 47 46  0 
-48 -380  0 
-47 -380  0 
-46 -380  0 
-385 384 57  0 
-384 385  0 
-57 385  0 
-384 -49 383  0 
49 384  0 
-383 384  0 
383 48 47 46  0 
-48 -383  0 
-47 -383  0 
-46 -383  0 
-388 386 387  0 
-386 388  0 
-387 388  0 
-386 -197 198  0 
197 386  0 
-198 386  0 
387 -61 -64  0 
61 -387  0 
64 -387  0 
-390 389 64  0 
-389 390  0 
-64 390  0 
-389 197 -198  0 
-197 389  0 
198 389  0 
-392 391 56  0 
-391 392  0 
-56 392  0 
-391 -197 -198  0 
197 391  0 
198 391  0 
-393 -64 -65  0 
64 393  0 
65 393  0 
-794 397 793  0 
-397 794  0 
-793 794  0 
397 -394 -395 -396  0 
394 -397  0 
395 -397  0 
396 -397  0 
-394 -58 -199 200  0 
58 394  0 
199 394  0 
-200 394  0 
-395 -57 199 -200  0 
57 395  0 
-199 395  0 
200 395  0 
-396 -56 -199 -200  0 
56 396  0 
199 396  0 
200 396  0 
793 -400 -406 -409 -412 -415 -418 -420 -422 -423 -792  0 
400 -793  0 
406 -793  0 
409 -793  0 
412 -793  0 
415 -793  0 
418 -793  0 
420 -793  0 
422 -793  0 
423 -793  0 
792 -793  0 
-400 399 75  0 
-399 400  0 
-75 400  0 
-399 -63 398  0 
63 399  0 
-398 399  0 
398 58 57 56  0 
-58 -398  0 
-57 -398  0 
-56 -398  0 
-406 402 405  0 
-402 406  0 
-405 406  0 
-402 -62 401  0 
62 402  0 
-401 402  0 
401 58 57 56  0 
-58 -401  0 
-57 -401  0 
-56 -401  0 
405 -72 -403 -404  0 
72 -405  0 
403 -405  0 
404 -405  0 
-403 67 70  0 
-67 403  0 
-70 403  0 
-404 68 69 75  0 
-68 404  0 
-69 404  0 
-75 404  0 
-409 408 74 73  0 
-408 409  0 
-74 409  0 
-73 409  0 
-408 -61 407  0 
61 408  0 
-407 408  0 
407 58 57 56  0 
-58 -407  0 
-57 -407  0 
-56 -407  0 
-412 411 73  0 
-411 412  0 
-73 412  0 
-411 -60 410  0 
60 411  0 
-410 411  0 
410 58 57 56  0 
-58 -410  0 
-57 -410  0 
-56 -410  0 
-415 414 67  0 
-414 415  0 
-67 415  0 
-414 -59 413  0 
59 414  0 
-413 414  0 
413 58 57 56  0 
-58 -413  0 
-57 -413  0 
-56 -413  0 
-418 416 417  0 
-416 418  0 
-417 418  0 
-416 -199 200  0 
199 416  0 
-200 416  0 
417 -71 -74  0 
71 -417  0 
74 -417  0 
-420 419 74  0 
-419 420  0 
-74 420  0 
-419 199 -200  0 
-199 419  0 
200 419  0 
-422 421 66  0 
-421 422  0 
-66 422  0 
-421 -199 -200  0 
199 421  0 
200 421  0 
-423 -74 -75  0 
74 423  0 
75 423  0 
-792 427 791  0 
-427 792  0 
-791 792  0 
427 -424 -425 -426  0 
424 -427  0 
425 -427  0 
426 -427  0 
-424 -68 -201 202  0 
68 424  0 
201 424  0 
-202 424  0 
-425 -67 201 -202  0 
67 425  0 
-201 425  0 
202 425  0 
-426 -66 -201 -202  0 
66 426  0 
201 426  0 
202 426  0 
791 -430 -436 -439 -442 -445 -448 -450 -452 -453 -790  0 
430 -791  0 
436 -791  0 
439 -791  0 
442 -791  0 
445 -791  0 
448 -791  0 
450 -791  0 
452 -791  0 
453 -791  0 
790 -791  0 
-430 429 85  0 
-429 430  0 
-85 430  0 
-429 -73 428  0 
73 429  0 
-428 429  0 
428 68 67 66  0 
-68 -428  0 
-67 -428  0 
-66 -428  0 
-436 432 435  0 
-432 436  0 
-435 436  0 
-432 -72 431  0 
72 432  0 
-431 432  0 
431 68 67 66  0 
-68 -431  0 
-67 -431  0 
-66 -431  0 
435 -82 -433 -434  0 
82 -435  0 
433 -435  0 
434 -435  0 
-433 76 80  0 
-76 433  0 
-80 433  0 
-434 78 79 85  0 
-78 434  0 
-79 434  0 
-85 434  0 
-439 438 84 83  0 
-438 439  0 
-84 439  0 
-83 439  0 
-438 -71 437  0 
71 438  0 
-437 438  0 
437 68 67 66  0 
-68 -437  0 
-67 -437  0 
-66 -437  0 
-442 441 83  0 
-441 442  0 
-83 442  0 
-441 -70 440  0 
70 441  0 
-440 441  0 
440 68 67 66  0 
-68 -440  0 
-67 -440  0 
-66 -440  0 
-445 444 76  0 
-444 445  0 
-76 445  0 
-444 -69 443  0 
69 444  0 
-443 444  0 
443 68 67 66  0 
-68 -443  0 
-67 -443  0 
-66 -443  0 
-448 446 447  0 
-446 448  0 
-447 448  0 
-446 -201 202  0 
201 446  0 
-202 446  0 
447 -81 -84  0 
81 -447  0 
84 -447  0 
-450 449 84  0 
-449 450  0 
-84 450  0 
-449 201 -202  0 
-201 449  0 
202 449  0 
-452 451 77  0 
-451 452  0 
-77 452  0 
-451 -201 -202  0 
201 451  0 
202 451  0 
-453 -84 -85  0 
84 453  0 
85 453  0 
-790 457 789  0 
-457 790  0 
-789 790  0 
457 -454 -455 -456  0 
454 -457  0 
455 -457  0 
456 -457  0 
-454 -78 -203 204  0 
78 454  0 
203 454  0 
-204 454  0 
-455 -77 203 -204  0 
77 455  0 
-203 455  0 
204 455  0 
-456 -76 -203 -204  0 
76 456  0 
203 456  0 
204 456  0 
789 -460 -468 -471 -474 -477 -480 -483 -485 -486 -788  0 
460 -789  0 
468 -789  0 
471 -789  0 
474 -789  0 
477 -789  0 
480 -789  0 
483 -789  0 
485 -789  0 
486 -789  0 
788 -789  0 
-460 459 99  0 
-459 460  0 
-99 460  0 
-459 -83 458  0 
83 459  0 
-458 459  0 
458 78 77 76  0 
-78 -458  0 
-77 -458  0 
-76 -458  0 
-468 462 467  0 
-462 468  0 
-467 468  0 
-462 -82 461  0 
82 462  0 
-461 462  0 
461 78 77 76  0 
-78 -461  0 
-77 -461  0 
-76 -461  0 
467 -96 -463 -464 -465 -466  0 
96 -467  0 
463 -467  0 
464 -467  0 
465 -467  0 
466 -467  0 
-463 87 93  0 
-87 463  0 
-93 463  0 
-464 89 91 98 97  0 
-89 464  0 
-91 464  0 
-98 464  0 
-97 464  0 
-465 88 90 99  0 
-88 465  0 
-90 465  0 
-99 465  0 
-466 88 92  0 
-88 466  0 
-92 466  0 
-471 470 98 97  0 
-470 471  0 
-98 471  0 
-97 471  0 
-470 -81 469  0 
81 470  0 
-469 470  0 
469 78 77 76  0 
-78 -469  0 
-77 -469  0 
-76 -469  0 
-474 473 97  0 
-473 474  0 
-97 474  0 
-473 -80 472  0 
80 473  0 
-472 473  0 
472 78 77 76  0 
-78 -472  0 
-77 -472  0 
-76 -472  0 
-477 476 87  0 
-476 477  0 
-87 477  0 
-476 -79 475  0 
79 476  0 
-475 476  0 
475 78 77 76  0 
-78 -475  0 
-77 -475  0 
-76 -475  0 
-480 478 479  0 
-478 480  0 
-479 480  0 
-478 -203 204  0 
203 478  0 
-204 478  0 
479 -95 -98  0 
95 -479  0 
98 -479  0 
-483 481 482  0 
-481 483  0 
-482 483  0 
-481 203 -204  0 
-203 481  0 
204 481  0 
482 -94 -86 -87  0 
94 -482  0 
86 -482  0 
87 -482  0 
-485 484 98  0 
-484 485  0 
-98 485  0 
-484 -203 -204  0 
203 484  0 
204 484  0 
-486 -98 -99  0 
98 486  0 
99 486  0 
-788 491 787  0 
-491 788  0 
-787 788  0 
491 -487 -488 -489 -490  0 
487 -491  0 
488 -491  0 
489 -491  0 
490 -491  0 
-487 -89 205 206 -207  0 
89 487  0 
-205 487  0 
-206 487  0 
207 487  0 
-488 -88 -205 206 -207  0 
88 488  0 
205 488  0 
-206 488  0 
207 488  0 
-489 -87 205 -206 -207  0 
87 489  0 
-205 489  0 
206 489  0 
207 489  0 
-490 -86 -205 -206 -207  0 
86 490  0 
205 490  0 
206 490  0 
207 490  0 
787 -494 -500 -503 -506 -509 -512 -515 -518 -521 -524 -526 -528 -529 -786  0 
494 -787  0 
500 -787  0 
503 -787  0 
506 -787  0 
509 -787  0 
512 -787  0 
515 -787  0 
518 -787  0 
521 -787  0 
524 -787  0 
526 -787  0 
528 -787  0 
529 -787  0 
786 -787  0 
-494 493 111  0 
-493 494  0 
-111 494  0 
-493 -97 492  0 
97 493  0 
-492 493  0 
492 89 88 87 86  0 
-89 -492  0 
-88 -492  0 
-87 -492  0 
-86 -492  0 
-500 496 499  0 
-496 500  0 
-499 500  0 
-496 -96 495  0 
96 496  0 
-495 496  0 
495 89 88 87 86  0 
-89 -495  0 
-88 -495  0 
-87 -495  0 
-86 -495  0 
499 -108 -497 -498  0 
108 -499  0 
497 -499  0 
498 -499  0 
-497 100 104  0 
-100 497  0 
-104 497  0 
-498 101 103 111  0 
-101 498  0 
-103 498  0 
-111 498  0 
-503 502 110 109  0 
-502 503  0 
-110 503  0 
-109 503  0 
-502 -95 501  0 
95 502  0 
-501 502  0 
501 89 88 87 86  0 
-89 -501  0 
-88 -501  0 
-87 -501  0 
-86 -501  0 
-506 505 102 111  0 
-505 506  0 
-102 506  0 
-111 506  0 
-505 -94 504  0 
94 505  0 
-504 505  0 
504 89 88 87 86  0 
-89 -504  0 
-88 -504  0 
-87 -504  0 
-86 -504  0 
-509 508 109  0 
-508 509  0 
-109 509  0 
-508 -93 507  0 
93 508  0 
-507 508  0 
507 89 88 87 86  0 
-89 -507  0 
-88 -507  0 
-87 -507  0 
-86 -507  0 
-512 511 105  0 
-511 512  0 
-105 512  0 
-511 -92 510  0 
92 511  0 
-510 511  0 
510 89 88 87 86  0 
-89 -510  0 
-88 -510  0 
-87 -510  0 
-86 -510  0 
-515 514 102  0 
-514 515  0 
-102 515  0 
-514 -91 513  0 
91 514  0 
-513 514  0 
513 89 88 87 86  0 
-89 -513  0 
-88 -513  0 
-87 -513  0 
-86 -513  0 
-518 517 100  0 
-517 518  0 
-100 518  0 
-517 -90 516  0 
90 517  0 
-516 517  0 
516 89 88 87 86  0 
-89 -516  0 
-88 -516  0 
-87 -516  0 
-86 -516  0 
-521 519 520  0 
-519 521  0 
-520 521  0 
-519 205 206 -207  0 
-205 519  0 
-206 519  0 
207 519  0 
520 -107 -111 -100  0 
107 -520  0 
111 -520  0 
100 -520  0 
-524 522 523  0 
-522 524  0 
-523 524  0 
-522 -205 206 -207  0 
205 522  0 
-206 522  0 
207 522  0 
523 -106 -110  0 
106 -523  0 
110 -523  0 
-526 525 110  0 
-525 526  0 
-110 526  0 
-525 205 -206 -207  0 
-205 525  0 
206 525  0 
207 525  0 
-528 527 109  0 
-527 528  0 
-109 528  0 
-527 -205 -206 -207  0 
205 527  0 
206 527  0 
207 527  0 
-529 -110 -111  0 
110 529  0 
111 529  0 
-786 533 785  0 
-533 786  0 
-785 786  0 
533 -530 -531 -532  0 
530 -533  0 
531 -533  0 
532 -533  0 
-530 -102 -208 209  0 
102 530  0 
208 530  0 
-209 530  0 
-531 -101 208 -209  0 
101 531  0 
-208 531  0 
209 531  0 
-532 -100 -208 -209  0 
100 532  0 
208 532  0 
209 532  0 
785 -536 -542 -546 -549 -552 -555 -558 -561 -564 -566 -567 -784  0 
536 -785  0 
542 -785  0 
546 -785  0 
549 -785  0 
552 -785  0 
555 -785  0 
558 -785  0 
561 -785  0 
564 -785  0 
566 -785  0 
567 -785  0 
784 -785  0 
-536 535 121  0 
-535 536  0 
-121 536  0 
-535 -109 534  0 
109 535  0 
-534 535  0 
534 102 101 100  0 
-102 -534  0 
-101 -534  0 
-100 -534  0 
-542 538 541  0 
-538 542  0 
-541 542  0 
-538 -108 537  0 
108 538  0 
-537 538  0 
537 102 101 100  0 
-102 -537  0 
-101 -537  0 
-100 -537  0 
541 -118 -539 -540  0 
118 -541  0 
539 -541  0 
540 -541  0 
-539 112 116  0 
-112 539  0 
-116 539  0 
-540 113 115 121  0 
-113 540  0 
-115 540  0 
-121 540  0 
-546 544 545 117  0 
-544 546  0 
-545 546  0 
-117 546  0 
-544 -107 543  0 
107 544  0 
-543 544  0 
543 102 101 100  0 
-102 -543  0 
-101 -543  0 
-100 -543  0 
545 -121 -112  0 
121 -545  0 
112 -545  0 
-549 548 120 119  0 
-548 549  0 
-120 549  0 
-119 549  0 
-548 -106 547  0 
106 548  0 
-547 548  0 
547 102 101 100  0 
-102 -547  0 
-101 -547  0 
-100 -547  0 
-552 551 114 121  0 
-551 552  0 
-114 552  0 
-121 552  0 
-551 -105 550  0 
105 551  0 
-550 551  0 
550 102 101 100  0 
-102 -550  0 
-101 -550  0 
-100 -550  0 
-555 554 119  0 
-554 555  0 
-119 555  0 
-554 -104 553  0 
104 554  0 
-553 554  0 
553 102 101 100  0 
-102 -553  0 
-101 -553  0 
-100 -553  0 
-558 557 112  0 
-557 558  0 
-112 558  0 
-557 -103 556  0 
103 557  0 
-556 557  0 
556 102 101 100  0 
-102 -556  0 
-101 -556  0 
-100 -556  0 
-561 559 560  0 
-559 561  0 
-560 561  0 
-559 -208 209  0 
208 559  0 
-209 559  0 
560 -121 -112  0 
121 -560  0 
112 -560  0 
-564 562 563  0 
-562 564  0 
-563 564  0 
-562 208 -209  0 
-208 562  0 
209 562  0 
563 -117 -120  0 
117 -563  0 
120 -563  0 
-566 565 120  0 
-565 566  0 
-120 566  0 
-565 -208 -209  0 
208 565  0 
209 565  0 
-567 -120 -121  0 
120 567  0 
121 567  0 
-784 571 783  0 
-571 784  0 
-783 784  0 
571 -568 -569 -570  0 
568 -571  0 
569 -571  0 
570 -571  0 
-568 -114 -210 211  0 
114 568  0 
210 568  0 
-211 568  0 
-569 -113 210 -211  0 
113 569  0 
-210 569  0 
211 569  0 
-570 -112 -210 -211  0 
112 570  0 
210 570  0 
211 570  0 
783 -574 -580 -583 -586 -589 -592 -595 -597 -598 -782  0 
574 -783  0 
580 -783  0 
583 -783  0 
586 -783  0 
589 -783  0 
592 -783  0 
595 -783  0 
597 -783  0 
598 -783  0 
782 -783  0 
-574 573 130  0 
-573 574  0 
-130 574  0 
-573 -119 572  0 
119 573  0 
-572 573  0 
572 114 113 112  0 
-114 -572  0 
-113 -572  0 
-112 -572  0 
-580 576 579  0 
-576 580  0 
-579 580  0 
-576 -118 575  0 
118 576  0 
-575 576  0 
575 114 113 112  0 
-114 -575  0 
-113 -575  0 
-112 -575  0 
579 -127 -577 -578  0 
127 -579  0 
577 -579  0 
578 -579  0 
-577 122 125  0 
-122 577  0 
-125 577  0 
-578 123 124 130  0 
-123 578  0 
-124 578  0 
-130 578  0 
-583 582 129 128  0 
-582 583  0 
-129 583  0 
-128 583  0 
-582 -117 581  0 
117 582  0 
-581 582  0 
581 114 113 112  0 
-114 -581  0 
-113 -581  0 
-112 -581  0 
-586 585 128  0 
-585 586  0 
-128 586  0 
-585 -116 584  0 
116 585  0 
-584 585  0 
584 114 113 112  0 
-114 -584  0 
-113 -584  0 
-112 -584  0 
-589 588 122  0 
-588 589  0 
-122 589  0 
-588 -115 587  0 
115 588  0 
-587 588  0 
587 114 113 112  0 
-114 -587  0 
-113 -587  0 
-112 -587  0 
-592 590 591  0 
-590 592  0 
-591 592  0 
-590 -210 211  0 
210 590  0 
-211 590  0 
591 -130 -122  0 
130 -591  0 
122 -591  0 
-595 593 594  0 
-593 595  0 
-594 595  0 
-593 210 -211  0 
-210 593  0 
211 593  0 
594 -126 -129  0 
126 -594  0 
129 -594  0 
-597 596 129  0 
-596 597  0 
-129 597  0 
-596 -210 -211  0 
210 596  0 
211 596  0 
-598 -129 -130  0 
129 598  0 
130 598  0 
-782 601 781  0 
-601 782  0 
-781 782  0 
601 -599 -600  0 
599 -601  0 
600 -601  0 
-599 -123 212 -213  0 
123 599  0 
-212 599  0 
213 599  0 
-600 -122 -212 -213  0 
122 600  0 
212 600  0 
213 600  0 
781 -604 -610 -613 -616 -619 -622 -624 -625 -780  0 
604 -781  0 
610 -781  0 
613 -781  0 
616 -781  0 
619 -781  0 
622 -781  0 
624 -781  0 
625 -781  0 
780 -781  0 
-604 603 139  0 
-603 604  0 
-139 604  0 
-603 -128 602  0 
128 603  0 
-602 603  0 
602 123 122  0 
-123 -602  0 
-122 -602  0 
-610 606 609  0 
-606 610  0 
-609 610  0 
-606 -127 605  0 
127 606  0 
-605 606  0 
605 123 122  0 
-123 -605  0 
-122 -605  0 
609 -136 -607 -608  0 
136 -609  0 
607 -609  0 
608 -609  0 
-607 131 134  0 
-131 607  0 
-134 607  0 
-608 132 133 139  0 
-132 608  0 
-133 608  0 
-139 608  0 
-613 612 138 137  0 
-612 613  0 
-138 613  0 
-137 613  0 
-612 -126 611  0 
126 612  0 
-611 612  0 
611 123 122  0 
-123 -611  0 
-122 -611  0 
-616 615 137  0 
-615 616  0 
-137 616  0 
-615 -125 614  0 
125 615  0 
-614 615  0 
614 123 122  0 
-123 -614  0 
-122 -614  0 
-619 618 131  0 
-618 619  0 
-131 619  0 
-618 -124 617  0 
124 618  0 
-617 618  0 
617 123 122  0 
-123 -617  0 
-122 -617  0 
-622 620 621  0 
-620 622  0 
-621 622  0 
-620 212 -213  0 
-212 620  0 
213 620  0 
621 -135 -138  0 
135 -621  0 
138 -621  0 
-624 623 138  0 
-623 624  0 
-138 624  0 
-623 -212 -213  0 
212 623  0 
213 623  0 
-625 -138 -139  0 
138 625  0 
139 625  0 
-780 628 779  0 
-628 780  0 
-779 780  0 
628 -626 -627  0 
626 -628  0 
627 -628  0 
-626 -132 214 -215  0 
132 626  0 
-214 626  0 
215 626  0 
-627 -131 -214 -215  0 
131 627  0 
214 627  0 
215 627  0 
779 -631 -637 -640 -643 -646 -649 -651 -652 -778  0 
631 -779  0 
637 -779  0 
640 -779  0 
643 -779  0 
646 -779  0 
649 -779  0 
651 -779  0 
652 -779  0 
778 -779  0 
-631 630 148  0 
-630 631  0 
-148 631  0 
-630 -137 629  0 
137 630  0 
-629 630  0 
629 132 131  0 
-132 -629  0 
-131 -629  0 
-637 633 636  0 
-633 637  0 
-636 637  0 
-633 -136 632  0 
136 633  0 
-632 633  0 
632 132 131  0 
-132 -632  0 
-131 -632  0 
636 -145 -634 -635  0 
145 -636  0 
634 -636  0 
635 -636  0 
-634 140 143  0 
-140 634  0 
-143 634  0 
-635 141 142 148  0 
-141 635  0 
-142 635  0 
-148 635  0 
-640 639 147 146  0 
-639 640  0 
-147 640  0 
-146 640  0 
-639 -135 638  0 
135 639  0 
-638 639  0 
638 132 131  0 
-132 -638  0 
-131 -638  0 
-643 642 146  0 
-642 643  0 
-146 643  0 
-642 -134 641  0 
134 642  0 
-641 642  0 
641 132 131  0 
-132 -641  0 
-131 -641  0 
-646 645 140  0 
-645 646  0 
-140 646  0 
-645 -133 644  0 
133 645  0 
-644 645  0 
644 132 131  0 
-132 -644  0 
-131 -644  0 
-649 647 648  0 
-647 649  0 
-648 649  0 
-647 214 -215  0 
-214 647  0 
215 647  0 
648 -144 -147  0 
144 -648  0 
147 -648  0 
-651 650 147  0 
-650 651  0 
-147 651  0 
-650 -214 -215  0 
214 650  0 
215 650  0 
-652 -147 -148  0 
147 652  0 
148 652  0 
-778 655 777  0 
-655 778  0 
-777 778  0 
655 -653 -654  0 
653 -655  0 
654 -655  0 
-653 -141 216 -217  0 
141 653  0 
-216 653  0 
217 653  0 
-654 -140 -216 -217  0 
140 654  0 
216 654  0 
217 654  0 
777 -658 -664 -667 -670 -673 -676 -678 -679 -776  0 
658 -777  0 
664 -777  0 
667 -777  0 
670 -777  0 
673 -777  0 
676 -777  0 
678 -777  0 
679 -777  0 
776 -777  0 
-658 657 157  0 
-657 658  0 
-157 658  0 
-657 -146 656  0 
146 657  0 
-656 657  0 
656 141 140  0 
-141 -656  0 
-140 -656  0 
-664 660 663  0 
-660 664  0 
-663 664  0 
-660 -145 659  0 
145 660  0 
-659 660  0 
659 141 140  0 
-141 -659  0 
-140 -659  0 
663 -154 -661 -662  0 
154 -663  0 
661 -663  0 
662 -663  0 
-661 149 152  0 
-149 661  0 
-152 661  0 
-662 150 151 157  0 
-150 662  0 
-151 662  0 
-157 662  0 
-667 666 156 155  0 
-666 667  0 
-156 667  0 
-155 667  0 
-666 -144 665  0 
144 666  0 
-665 666  0 
665 141 140  0 
-141 -665  0 
-140 -665  0 
-670 669 155  0 
-669 670  0 
-155 670  0 
-669 -143 668  0 
143 669  0 
-668 669  0 
668 141 140  0 
-141 -668  0 
-140 -668  0 
-673 672 149  0 
-672 673  0 
-149 673  0 
-672 -142 671  0 
142 672  0 
-671 672  0 
671 141 140  0 
-141 -671  0 
-140 -671  0 
-676 674 675  0 
-674 676  0 
-675 676  0 
-674 216 -217  0 
-216 674  0 
217 674  0 
675 -153 -156  0 
153 -675  0 
156 -675  0 
-678 677 156  0 
-677 678  0 
-156 678  0 
-677 -216 -217  0 
216 677  0 
217 677  0 
-679 -156 -157  0 
156 679  0 
157 679  0 
-776 682 775  0 
-682 776  0 
-775 776  0 
682 -680 -681  0 
680 -682  0 
681 -682  0 
-680 -150 218 -219  0 
150 680  0 
-218 680  0 
219 680  0 
-681 -149 -218 -219  0 
149 681  0 
218 681  0 
219 681  0 
775 -685 -691 -694 -697 -700 -703 -705 -706 -774  0 
685 -775  0 
691 -775  0 
694 -775  0 
697 -775  0 
700 -775  0 
703 -775  0 
705 -775  0 
706 -775  0 
774 -775  0 
-685 684 166  0 
-684 685  0 
-166 685  0 
-684 -155 683  0 
155 684  0 
-683 684  0 
683 150 149  0 
-150 -683  0 
-149 -683  0 
-691 687 690  0 
-687 691  0 
-690 691  0 
-687 -154 686  0 
154 687  0 
-686 687  0 
686 150 149  0 
-150 -686  0 
-149 -686  0 
690 -163 -688 -689  0 
163 -690  0 
688 -690  0 
689 -690  0 
-688 158 161  0 
-158 688  0 
-161 688  0 
-689 159 160 166  0 
-159 689  0 
-160 689  0 
-166 689  0 
-694 693 165 164  0 
-693 694  0 
-165 694  0 
-164 694  0 
-693 -153 692  0 
153 693  0 
-692 693  0 
692 150 149  0 
-150 -692  0 
-149 -692  0 
-697 696 164  0 
-696 697  0 
-164 697  0 
-696 -152 695  0 
152 696  0 
-695 696  0 
695 150 149  0 
-150 -695  0 
-149 -695  0 
-700 699 158  0 
-699 700  0 
-158 700  0 
-699 -151 698  0 
151 699  0 
-698 699  0 
698 150 149  0 
-150 -698  0 
-149 -698  0 
-703 701 702  0 
-701 703  0 
-702 703  0 
-701 218 -219  0 
-218 701  0 
219 701  0 
702 -162 -165  0 
162 -702  0 
165 -702  0 
-705 704 165  0 
-704 705  0 
-165 705  0 
-704 -218 -219  0 
218 704  0 
219 704  0 
-706 -165 -166  0 
165 706  0 
166 706  0 
-774 709 773  0 
-709 774  0 
-773 774  0 
709 -707 -708  0 
707 -709  0 
708 -709  0 
-707 -159 220 -221  0 
159 707  0 
-220 707  0 
221 707  0 
-708 -158 -220 -221  0 
158 708  0 
220 708  0 
221 708  0 
773 -712 -718 -721 -724 -727 -730 -732 -733 -772  0 
712 -773  0 
718 -773  0 
721 -773  0 
724 -773  0 
727 -773  0 
730 -773  0 
732 -773  0 
733 -773  0 
772 -773  0 
-712 711 175  0 
-711 712  0 
-175 712  0 
-711 -164 710  0 
164 711  0 
-710 711  0 
710 159 158  0 
-159 -710  0 
-158 -710  0 
-718 714 717  0 
-714 718  0 
-717 718  0 
-714 -163 713  0 
163 714  0 
-713 714  0 
713 159 158  0 
-159 -713  0 
-158 -713  0 
717 -171 -715 -716  0 
171 -717  0 
715 -717  0 
716 -717  0 
-715 167 170  0 
-167 715  0 
-170 715  0 
-716 168 169 175  0 
-168 716  0 
-169 716  0 
-175 716  0 
-721 720 174 173  0 
-720 721  0 
-174 721  0 
-173 721  0 
-720 -162 719  0 
162 720  0 
-719 720  0 
719 159 158  0 
-159 -719  0 
-158 -719  0 
-724 723 173  0 
-723 724  0 
-173 724  0 
-723 -161 722  0 
161 723  0 
-722 723  0 
722 159 158  0 
-159 -722  0 
-158 -722  0 
-727 726 167  0 
-726 727  0 
-167 727  0 
-726 -160 725  0 
160 726  0 
-725 726  0 
725 159 158  0 
-159 -725  0 
-158 -725  0 
-730 728 729  0 
-728 730  0 
-729 730  0 
-728 220 -221  0 
-220 728  0 
221 728  0 
729 -172 -174  0 
172 -729  0 
174 -729  0 
-732 731 174  0 
-731 732  0 
-174 732  0 
-731 -220 -221  0 
220 731  0 
221 731  0 
-733 -174 -175  0 
174 733  0 
175 733  0 
-772 736 771  0 
-736 772  0 
-771 772  0 
736 -734 -735  0 
734 -736  0 
735 -736  0 
-734 -168 222 -223  0 
168 734  0 
-222 734  0 
223 734  0 
-735 -167 -222 -223  0 
167 735  0 
222 735  0 
223 735  0 
771 -739 -742 -745 -748 -751 -754 -756 -757 -770  0 
739 -771  0 
742 -771  0 
745 -771  0 
748 -771  0 
751 -771  0 
754 -771  0 
756 -771  0 
757 -771  0 
770 -771  0 
-739 738 181  0 
-738 739  0 
-181 739  0 
-738 -173 737  0 
173 738  0 
-737 738  0 
737 168 167  0 
-168 -737  0 
-167 -737  0 
-742 741 180 179  0 
-741 742  0 
-180 742  0 
-179 742  0 
-741 -172 740  0 
172 741  0 
-740 741  0 
740 168 167  0 
-168 -740  0 
-167 -740  0 
-745 744 176 177  0 
-744 745  0 
-176 745  0 
-177 745  0 
-744 -171 743  0 
171 744  0 
-743 744  0 
743 168 167  0 
-168 -743  0 
-167 -743  0 
-748 747 179  0 
-747 748  0 
-179 748  0 
-747 -170 746  0 
170 747  0 
-746 747  0 
746 168 167  0 
-168 -746  0 
-167 -746  0 
-751 750 176  0 
-750 751  0 
-176 751  0 
-750 -169 749  0 
169 750  0 
-749 750  0 
749 168 167  0 
-168 -749  0 
-167 -749  0 
-754 752 753  0 
-752 754  0 
-753 754  0 
-752 222 -223  0 
-222 752  0 
223 752  0 
753 -178 -180  0 
178 -753  0 
180 -753  0 
-756 755 180  0 
-755 756  0 
-180 756  0 
-755 -222 -223  0 
222 755  0 
223 755  0 
-757 -180 -181  0 
180 757  0 
181 757  0 
-770 758 769  0 
-758 770  0 
-769 770  0 
-758 -224 -176  0 
224 758  0 
176 758  0 
769 -759 -761 -763 -765 -766 -768  0 
759 -769  0 
761 -769  0 
763 -769  0 
765 -769  0 
766 -769  0 
768 -769  0 
-759 -224 183  0 
224 759  0 
-183 759  0 
-761 760 184  0 
-760 761  0 
-184 761  0 
-760 -179 -176  0 
179 760  0 
176 760  0 
-763 762 183 182  0 
-762 763  0 
-183 763  0 
-182 763  0 
-762 -178 -176  0 
178 762  0 
176 762  0 
-765 764 182  0 
-764 765  0 
-182 765  0 
-764 -177 -176  0 
177 764  0 
176 764  0 
-766 -183 -184  0 
183 766  0 
184 766  0 
-768 767 185  0 
-767 768  0 
-185 768  0 
767  0 
